%chk=92_C21H7N5O2S3.chk
%NProcShared=12
%Mem=8000MB
#B3LYP/6-31++G(d,p) opt scf=direct freq test

Geom opt of No.92 candidate from the CEPDB database with SMILE code of C1ccc2c1csc2-c1ncc(s1)-c1ccc([Se]1)-c1cncc2nsnc12, HPC, 20131227, Shuo Dai, Gaussian09

0  1
C          -1.24900         1.15800        -0.00400
C          -2.09400        -0.04400         0.00200
C          -1.29200        -1.07500         0.00000
C          -0.01500        -0.66200        -0.00000
C           0.02100         0.71400         0.00200
C           1.34900         1.05800         0.00100
S           2.04100        -0.07100        -0.00000
C           1.24200        -1.07800        -0.00100
C           1.65524        -2.46161        -0.00293
N           2.89232        -2.87663        -0.02666
C           2.86437        -4.23155        -0.03041
C           1.55443        -4.57723         0.00337
S           0.86026        -3.47222         0.01910
C           1.01056        -5.95574         0.01947
C           1.21245        -7.08873         0.67108
C           0.94080        -8.17426        -0.30669
C           0.60131        -7.57021        -1.43315
Se          0.64808        -6.24195        -1.24144
C          -0.77263        -7.97011        -1.81873
C          -1.71427        -7.03234        -2.06584
N          -2.98302        -7.37009        -2.41690
C          -3.36092        -8.66028        -2.54760
C          -2.42079        -9.68427        -2.30773
N          -2.44932       -11.01570        -2.34182
S          -1.24887       -11.47374        -2.01842
N          -0.42508       -10.47551        -1.77237
C          -1.09571        -9.32352        -1.93446
H          -1.44005         1.75197         0.86525
H          -1.44662         1.77375        -0.85646
H          -3.12569        -0.06895         0.00687
H          -1.59544        -2.06138        -0.00138
H           1.73536         2.01495         0.00102
H           3.67504        -4.86974        -0.05413
H           1.49970        -7.19679         1.65639
H           1.00407        -9.19087        -0.14077
H          -1.46337        -6.03450        -1.98588
H          -4.32823        -8.89466        -2.82034



