%chk=65_C26H13N5S2.chk
%NProcShared=12
%Mem=8000MB
#B3LYP/6-31++G(d,p) opt scf=direct freq test

Geom opt of No.65 candidate from the CEPDB database with SMILE code of c1occ2c1ccc1sc3cc([Se]c3c21)-c1cncc2nsnc12, HPC, 20131227, Shuo Dai, Gaussian09

0  1
C           3.45300         0.33200        -0.02400
O           3.03200         1.58200         0.02000
C           1.69400         1.59700         0.04200
C           1.24100         0.36200         0.01800
C           2.31400        -0.48600        -0.02100
C           2.13200        -1.83500        -0.05100
C           0.94000        -2.36400        -0.04600
C          -0.16000        -1.62200        -0.01000
S          -1.90100        -1.96700         0.00800
C          -2.48700        -0.28800         0.06000
C          -3.73500         0.55100         0.09800
C          -3.26300         1.96500        -0.30600
Se         -1.78200         1.93600         0.11800
C          -1.36800         0.46200         0.06400
C          -0.11600        -0.22100         0.02500
C          -4.01309         3.01360         0.42484
C          -3.62121         4.28984         0.21318
N          -4.15835         5.32614         0.90933
C          -5.11916         5.13137         1.83851
C          -5.57318         3.82168         2.10026
N          -6.47430         3.28378         2.92083
S          -6.48330         1.97145         2.73873
N          -5.60941         1.62790         1.81464
C          -5.00196         2.74063         1.37200
H           4.43500         0.01616        -0.05480
H           1.10812         2.44601         0.07300
H           2.95737        -2.45390        -0.07836
H           0.84912        -3.39169        -0.07081
H          -4.15527         0.55935         1.08197
H          -4.49758         0.17551        -0.55191
H          -3.41315         2.19283        -1.34063
H          -2.89568         4.48220        -0.49507
H          -5.51734         5.93309         2.35205



