%chk=36_C21H10N4S5.chk
%NProcShared=12
%Mem=8000MB
#B3LYP/6-31++G(d,p) opt scf=direct freq test

Geom opt of No.36 candidate from the CEPDB database with SMILE code of [SiH2]1C=c2c3c4sccc4[Se]c3c3c4nsnc4c(cc3c2=C1)-c1cccc2nsnc12, HPC, 20131227, Shuo Dai, Gaussian09

0  1
Si          1.46800        -1.01144        -0.98346
H           0.64843        -1.83464        -0.16673
H           0.64843        -0.21812        -1.82924
C           2.48735         0.07993         0.07771
C           1.90736         0.92530         0.89970
C           0.52206         1.13186         0.92535
C          -0.43579         0.47124         0.25784
S          -0.18078        -0.78230        -0.78109
C           1.43375        -1.09935        -0.87359
C          -2.78002         0.55503         0.07081
C          -1.60228         0.97629         0.55957
Se         -1.43405         2.02229         1.46933
C          -0.07154         2.15164         1.72917
C           0.83956         2.97822         2.53450
C           0.45784         4.01705         3.38179
N          -0.79915         4.31935         3.50560
S          -1.24458         5.51362         4.47896
N           1.04262         5.70202         4.88257
C           1.41939         4.73650         4.09991
C           2.74472         4.44001         3.99094
C           3.13826         3.44466         3.18470
C           2.24018         2.70615         2.46387
C           2.73750         1.69077         1.64399
C           2.56339        -2.06425        -2.00715
C           3.72086         5.19493         4.74086
C           3.57172         6.52701         4.90753
C           4.47868         7.26313         5.60222
C           5.56691         6.69702         6.17007
C           5.78221         5.32387         6.03747
N           6.72884         4.46799         6.45516
S           6.41479         3.26141         6.02949
N           5.28507         3.29280         5.33797
C           4.83972         4.54792         5.30607
H           3.51707         0.03079         0.02994
H           2.41611        -1.38516        -1.00884
H          -3.80762         0.58035        -0.02098
H           4.14452         3.22972         3.10552
H           2.87215        -2.77025        -2.69362
H           2.74948         6.99700         4.49759
H           4.33284         8.28021         5.69866
H           6.23601         7.27751         6.69956



