%chk=44_C18H9N7S3.chk
%NProcShared=12
%Mem=8000MB
#B3LYP/6-31++G(d,p) opt scf=direct freq test

Geom opt of No.44 candidate from the CEPDB database with SMILE code of c1nc(sc1-c1ccc(-c2cccc3cscc23)c2cocc12)-c1cncc2nsnc12, HPC, 20131227, Shuo Dai, Gaussian09

0  1
C          -1.18802         0.10540         0.01889
N          -0.42017         1.25159         0.02958
C           0.84694         0.90428        -0.02317
S           1.13442        -0.68593        -0.26405
C          -0.44790        -1.04957         0.00414
C          -0.75315        -2.42265         0.02987
C          -2.08551        -2.79533        -0.04061
C          -2.42300        -4.13161        -0.05436
C          -1.47260        -5.20621        -0.05677
C          -1.97814        -6.54540         0.00555
C          -3.35343        -6.90503        -0.04942
C          -3.80399        -8.25165        -0.02269
C          -2.94788        -9.36793         0.03284
C          -1.60811        -8.99879         0.07059
C          -0.55925        -9.87151         0.16665
S           0.92422        -9.00636         0.07559
C           0.04977        -7.68328         0.73341
C          -1.18247        -7.65882         0.10070
C          -0.08647        -4.80647        -0.11183
C           1.16182        -5.42391        -0.19947
O           2.19103        -4.56423        -0.09994
C           1.61248        -3.39131         0.14404
C           0.23636        -3.44454        -0.00037
C           2.06154         1.63407         0.01513
C           3.37196         1.09203         0.02271
N           4.53318         1.78544         0.02501
C           4.48662         3.14209         0.02097
C           3.23412         3.79712         0.01232
N           3.00478         5.11752         0.00645
S           1.35501         5.32440        -0.00679
N           0.87003         3.75748        -0.00720
C           1.98567         3.01343         0.00866
H          -2.26891         0.17218         0.02871
H          -2.88008        -2.05240        -0.09202
H          -3.49992        -4.29633        -0.07317
H          -4.13425        -6.14632        -0.09639
H          -4.88013        -8.40887        -0.06052
H          -3.28200       -10.38428         0.07508
H          -0.52895       -10.93683         0.28374
H           0.48494        -6.92085         1.34964
H           1.61672        -6.39960        -0.21172
H           2.36374        -2.66060         0.38297
H           3.55971         0.01112         0.01777
H           5.43252         3.65402         0.02529



