%chk=63_C26H14N4S.chk
%NProcShared=12
%Mem=8000MB
#B3LYP/6-31++G(d,p) opt scf=direct freq test

Geom opt of No.63 candidate from the CEPDB database with SMILE code of [SiH2]1C=c2ccc3cc4c5cocc5c5cc(sc5c4cc3c2=C1)-c1cncc2nsnc12, HPC, 20131227, Shuo Dai, Gaussian09

0  1
Si          3.84790        -1.75782         1.14004
H           4.77629        -1.95405        -0.06076
H           4.96751        -1.07616         1.86081
C           3.11231         0.29527         1.58465
C           3.51168         0.78610         0.47980
C           4.65876         1.79139         0.02389
C           5.47487         0.94540        -0.89978
C           4.50122         0.98933        -2.05737
C           4.81057        -0.19782        -2.90178
C           3.81185         0.12838        -3.97782
C           4.48744        -0.39558        -5.18915
C           5.03685        -1.76261        -5.29719
O           5.68633        -1.57487        -6.58186
C           5.33141        -0.23850        -7.16520
C           3.96932        -0.24239        -6.56791
C           2.62679         0.32514        -6.30893
C           1.90190        -0.97114        -6.21397
C           0.54085        -0.53147        -6.80183
S           0.02567        -0.28596        -5.11528
C           1.66378         0.84494        -5.03353
C           2.26984         0.37337        -3.74116
C           1.86439         1.34299        -2.68586
C           2.89194         1.06507        -1.64518
C           2.86242         0.04095        -0.63793
C           2.44881        -1.26734        -0.54540
C           0.33431         0.96996        -7.49622
C          -0.83642         1.66939        -7.09133
N          -1.20164         2.96632        -7.33534
C          -0.39733         3.80381        -8.02231
C           0.88042         3.36256        -8.41366
N           1.82269         4.12644        -8.95956
S           3.17306         3.19101        -9.10211
N           2.50791         1.75018        -8.69115
C           1.24411         1.92564        -8.19855
H           2.03013        -0.01623         1.57080
H           5.24702         2.28776         0.77871
H           4.28144         2.64245        -0.59551
H           5.64881        -0.07807        -0.54672
H           6.47161         1.31120        -1.17477
H           4.77628         1.90223        -2.60474
H           4.82163        -1.21625        -2.47175
H           5.86287        -0.10522        -3.26505
H           4.02633         1.19238        -4.15400
H           5.25519         0.39605        -5.19930
H           4.15338        -2.41628        -5.12167
H           5.78969        -2.29979        -4.72712
H           5.82573        -0.34066        -8.12888
H           5.69551         0.77210        -6.89676
H           3.70438        -1.01817        -7.32360
H           2.39606         0.47160        -7.30862
H           2.08239        -1.20595        -5.15350
H           2.28073        -1.98033        -6.39594
H           0.26841        -1.34980        -7.46310
H           1.15551         1.83024        -5.04821
H           1.80445        -0.53440        -3.34183
H           0.83033         1.19065        -2.30169
H           1.83799         2.41789        -2.96494
H           2.49285         1.88618        -1.02594
H           1.98951        -1.94249         0.16121
H          -1.54536         1.19429        -6.40790
H          -0.75150         4.79240        -8.24880



