%chk=3_C24H12N4O2SSi.chk
%NProcShared=12
%Mem=8000MB
#B3LYP/6-31++G(d,p) opt scf=direct freq test

Geom opt of No.3 candidate from the CEPDB database with SMILE code of [SiH2]1C=c2cccc(-c3cc4c5nsnc5c5ccc6=C[SiH2]C=c6c5c4c4nsnc34)c2=C1, HPC, 20131227, Shuo Dai, Gaussian09

0  1
Si          7.94023         9.29618         1.13352
H           8.12193         8.89093         2.49174
H           8.45932         8.71314        -0.06488
C           8.34313        11.03150         1.05599
C           7.27740        11.79406         0.84727
C           7.29791        13.20714         0.74269
C           6.15854        13.86167         0.53331
C           4.93150        13.15182         0.41234
C           4.84213        11.81749         0.51179
C           3.57065        11.22574         0.39415
C           3.45740         9.88558         0.35846
C           2.22444         9.33553         0.26157
C           2.09252         8.06352         0.23803
N           3.05134         7.24540         0.31328
S           4.10290         6.39248         0.39393
N           2.17346         5.70928         0.23244
C           1.23369         7.02093         0.15579
C          -0.08785         7.60180         0.04093
C          -1.33402         6.88344        -0.05662
C          -2.48756         7.52943        -0.18695
C          -2.44374         8.92476        -0.30650
C          -3.34345         9.79213        -0.83021
Si         -4.67400         9.70131         0.23779
H          -5.22465         8.14453         0.69316
H          -6.14587         9.84889        -0.53302
C          -2.42214        10.64782         0.29745
C          -1.45168         9.70497         0.15287
C          -0.13676         9.09505         0.05063
C           1.00619         9.87209         0.16038
C           1.14336        11.23063         0.18941
N           0.11293        12.02972         0.09635
S           0.56635        13.55864         0.16200
N           2.15768        13.26480         0.31064
C           2.37854        11.94154         0.30616
C           6.04011        11.05461         0.73750
C           6.23973         9.73735         0.88914
H           9.37163        11.21333         1.18510
H           8.23635        13.70236         0.83533
H           6.12792        14.93120         0.44765
H           4.09877        13.80281         0.23484
H           4.27414         9.22770         0.36269
H          -1.34998         5.83109        -0.06127
H          -3.45660         7.07823        -0.24908
H          -3.87987        10.92825        -0.58287
H          -1.95217        11.68254         0.01981
H           5.71750         8.81658         0.92201



