%chk=16_C17H9N5S2.chk
%NProcShared=12
%Mem=8000MB
#B3LYP/6-31++G(d,p) opt scf=direct freq test

Geom opt of No.16 candidate from the CEPDB database with SMILE code of C1C=Cc2csc(c12)-c1cc2c3nsnc3c3c4[SiH2]C=Cc4c4=C[SiH2]C=c4c3c2cn1, HPC, 20131227, Shuo Dai, Gaussian09

0  1
C           9.21596        12.94538         0.01031
C          10.40612        13.90764         0.01579
C          11.57366        13.22834         0.01869
C          11.30589        11.83202         0.01300
C          12.05701        10.70003         0.01724
S          11.01938         9.31122         0.01173
C           9.55590        10.24547         0.01851
C           9.90577        11.60065         0.00557
C           8.20440         9.60356         0.09353
C           7.11533        10.40013         0.14368
C           5.80247         9.84230         0.29606
C           4.81075        10.61083        -0.18878
N           4.85733        11.95900        -0.11763
S           3.31845        12.38732        -0.40067
N           2.76184        10.98206        -1.22604
C           3.54046         9.92859        -0.87019
C           3.34899         8.38808        -0.76568
C           2.36372         7.12840        -0.93969
Si          2.98772         5.35306         0.09276
H           3.48354         4.77167        -1.17704
H           3.78593         5.25737         1.34127
C           0.98287         5.00250         0.66345
C           0.43216         5.53352        -0.44717
C           1.00496         7.00287        -0.70731
C           0.67694         8.32285        -0.05524
C          -0.46165         9.07794        -0.18763
Si         -0.11652        11.16355        -0.07088
H           0.09035        12.20167         1.03617
H           0.39909        11.98000        -1.24330
C           1.48647        10.28149         1.15187
C           1.93516         9.01021         0.77387
C           3.63439         8.39184         0.53496
C           5.27825         8.58481         0.52484
C           6.56976         7.82814         0.31214
N           7.95416         8.27407         0.12617
H           8.61756        13.10200        -0.89219
H           8.60975        13.09895         0.90828
H          10.30410        14.98515         0.01410
H          12.55793        13.67812         0.02187
H          13.13262        10.59101         0.02424
H           7.21492        11.46318        -0.03965
H           0.66745         5.56363         1.54649
H           0.50856         4.67589        -1.16709
H          -1.48704         8.91639        -0.51338
H           0.43588        10.25094         1.48853
H           6.58109         6.73901         0.17164



