%chk=70_C26H13N5S2.chk
%NProcShared=12
%Mem=8000MB
#B3LYP/6-31++G(d,p) opt scf=direct freq test

Geom opt of No.70 candidate from the CEPDB database with SMILE code of c1csc(n1)-c1ccc([Se]1)-c1ncc(-c2scc3ccoc23)c2nsnc12, HPC, 20131227, Shuo Dai, Gaussian09

0  1
C          -1.14400         0.00000        -0.00200
C          -0.32800         1.08200         0.00100
S           0.90100         0.64300         0.00100
C           0.90100        -0.64300        -0.00200
N          -0.32800        -1.08200         0.00300
C           2.11241        -1.49666        -0.00993
C           2.97562        -1.08796         1.20890
C           3.93117        -2.30018         1.36997
C           3.04836        -3.52413         1.04785
Se          1.89206        -3.01282         0.17056
C           3.83515        -4.54333         0.31401
N           4.81396        -4.24509        -0.56772
C           5.43356        -5.21052        -1.29647
C           5.10943        -6.51630        -1.16599
C           5.79769        -7.51565        -1.94877
S           6.69650        -7.22421        -2.93137
C           7.03842        -8.82863        -3.63304
C           5.97777        -9.79471        -2.59133
C           5.48996       -11.01417        -2.25285
C           4.62029       -10.82618        -1.22080
O           4.56643        -9.56577        -0.91841
C           5.40146        -8.84527        -1.74458
C           4.10657        -6.89506        -0.27141
N           3.55004        -8.06240         0.09013
S           2.62690        -7.81881         0.99795
N           2.55360        -6.51978         1.24818
C           3.44927        -5.88866         0.49046
H          -2.17599        -0.00000        -0.00706
H          -0.62388         2.07067         0.00293
H           2.54130        -1.34456        -0.97834
H           2.37182        -0.95361         2.08199
H           3.48746        -0.15795         1.07475
H           4.30742        -2.35643         2.37006
H           4.78798        -2.23393         0.73249
H           2.68102        -3.98147         1.94273
H           6.17028        -4.93980        -1.96653
H           7.66151        -9.10815        -4.40677
H           5.73198       -11.91517        -2.69405
H           4.08548       -11.57331        -0.75090



