%chk=97_C21H13N3OSSi2.chk
%NProcShared=12
%Mem=8000MB
#B3LYP/6-31++G(d,p) opt scf=direct freq test

Geom opt of No.97 candidate from the CEPDB database with SMILE code of c1occ2c1ccc1c3ccccc3c3c4[Se]c(cc4[Se]c3c21)-c1cncc2nsnc12, HPC, 20131227, Shuo Dai, Gaussian09

0  1
C          -3.00000        -0.27900         0.00000
O          -3.05700         1.12000         0.00100
C          -1.84700         1.60500         0.00000
C          -0.93400         0.53300         0.00000
C          -1.68500        -0.65600         0.00000
C          -1.07800        -1.84300         0.00000
C           0.22300        -1.99000        -0.00100
C           1.08000        -0.88000        -0.00100
C           2.48700        -0.98200        -0.00100
C           3.08488        -2.18447        -0.00600
C           4.42521        -2.26794        -0.00594
C           5.02309        -3.47041        -0.01093
C           4.54433         0.01577         0.01601
C           3.20600         0.12600         0.00400
C           2.69400         1.30000        -0.00200
C           3.60749         2.46696        -0.01048
Se          3.05270         3.90996         0.07709
C           4.25851         4.70328         0.64730
C           4.89674         3.73977         1.66980
C           4.48250         2.31802         1.25127
Se          0.70387         3.31698         0.00043
C           1.39100         1.52200        -0.00100
C           0.51800         0.42200        -0.00100
C           5.22084         5.04134        -0.42785
C           5.90604         4.06751        -1.06764
N           6.77722         4.34960        -2.07189
C           6.99122         5.61693        -2.48728
C           6.30114         6.67607        -1.86122
N           6.27167         7.99949        -2.01078
S           5.42214         8.50675        -1.12963
N           4.88679         7.54886        -0.40060
C           5.39504         6.37400        -0.80620
H          -3.81136        -0.91674        -0.00063
H          -1.59963         2.60691        -0.00068
H          -1.66522        -2.69164         0.00083
H           0.62526        -2.94037        -0.00180
H           2.51434        -3.04441        -0.00988
H           4.99575        -1.40800        -0.00205
H           5.32702        -4.45662        -0.01688
H           5.25392         0.76498         0.02969
H           4.05646         2.41415        -0.98030
H           3.96548         5.63314         1.08820
H           4.53670         3.95457         2.65425
H           5.96164         3.84293         1.68500
H           5.15093         1.62488         1.71783
H           5.76401         3.08480        -0.78636
H           7.65330         5.80855        -3.25537



