%chk=68_C23H11N3OS3Si.chk
%NProcShared=12
%Mem=8000MB
#B3LYP/6-31++G(d,p) opt scf=direct freq test

Geom opt of No.68 candidate from the CEPDB database with SMILE code of C1ccc2csc(c12)-c1ncc(s1)-c1ccc(-c2nccc3nsnc23)c2c[SiH2]cc12, HPC, 20131227, Shuo Dai, Gaussian09

0  1
C          -1.42790         1.18515         0.00391
C          -2.26787        -0.08927         0.00139
C          -1.49533        -1.20891        -0.00147
C          -0.14573        -0.83429        -0.00120
C           1.05024        -1.48508        -0.00153
S           2.29671        -0.33681         0.00311
C           1.16641         1.02941         0.00539
C          -0.08267         0.57249         0.00213
C           1.59758         2.38836         0.00973
N           0.93584         3.52219         0.00800
C           1.88241         4.57417         0.00015
C           3.20475         4.17140        -0.00728
S           3.22197         2.52475         0.02379
C           4.51661         4.77675        -0.02819
C           4.58756         6.17370        -0.03053
C           5.82452         6.82085        -0.05717
C           7.03807         6.09994        -0.08368
C           8.34747         6.80594        -0.11363
N           8.29635         8.18601        -0.10216
C           9.43126         8.94713        -0.12251
C          10.74562         8.50539        -0.14220
C          10.87196         7.11950        -0.15084
N          12.05252         6.47308        -0.16046
S          11.72928         4.86543        -0.17727
N          10.11923         4.97940        -0.19941
C           9.68318         6.24298        -0.15046
C           6.91343         4.69720        -0.07361
C           8.06742         3.77697        -0.09724
Si          7.73990         1.99058        -0.05687
H           8.36346         1.47023        -1.30726
H           8.37211         1.52626         1.20854
C           5.93236         2.45090        -0.03309
C           5.71224         4.00635        -0.04655
H          -1.58436         1.78958         0.90284
H          -1.58556         1.79505        -0.89114
H          -3.34006        -0.07704         0.00350
H          -1.82265        -2.23207        -0.00202
H           1.29950        -2.53275        -0.00323
H           1.54064         5.60230        -0.00284
H           3.67928         6.77389        -0.01064
H           5.81502         7.91098        -0.05739
H           9.23621        10.01620        -0.12240
H          11.61369         9.13674        -0.15594
H           8.58432         3.95233         0.84570
H           8.51480         3.92392        -1.08045
H           5.57278         2.00435         0.90040
H           5.53179         1.97082        -0.93260



