%chk=52_C24H12N4S3Si.chk
%NProcShared=12
%Mem=8000MB
#B3LYP/6-31++G(d,p) opt scf=direct freq test

Geom opt of No.52 candidate from the CEPDB database with SMILE code of c1occ2c1ccc1[Se]c3c4oc(cc4c4nsnc4c3c21)-c1nccc2nsnc12, HPC, 20131227, Shuo Dai, Gaussian09

0  1
C           1.00780        -0.09029         0.04226
O           2.26237        -0.09029         0.04226
C           2.88965        -1.07433         0.50285
C           4.20369        -1.07433         0.50285
C           4.89565        -2.15465         1.00850
C           6.28395        -2.16260         1.01154
C           6.98708        -1.10273         0.51588
C           6.30649         0.00573        -0.00185
Se          6.71883         1.17484        -0.54854
C           5.67308         1.89812        -0.88789
C           5.52533         3.21562        -1.50490
O           6.44591         4.23677        -1.98916
C           5.69012         5.24738        -2.45661
C           4.36514         4.93529        -2.31089
C           4.23443         3.70286        -1.73358
C           3.17832         2.95199        -1.38137
N           1.98354         3.41329        -1.59684
S           1.79033         4.85512        -2.27206
N           2.23375         1.11938        -0.52255
C           3.30727         1.78112        -0.83303
C           4.51882         1.21716        -0.56948
C           4.90008         0.01307        -0.00570
C           6.19890         6.47345        -3.02498
N           5.65869         7.62217        -2.56338
C           5.98251         8.82738        -3.10157
C           6.86919         8.93662        -4.11597
C           7.46626         7.78876        -4.64075
N           8.35420         7.54420        -5.61793
S           8.56001         6.24424        -5.67620
N           7.83069         5.61769        -4.76462
C           7.12711         6.52281        -4.08607
H           0.01186         0.15462        -0.07237
H           2.37365        -1.88378         0.88172
H           6.78936        -2.97784         1.39229
H           8.01894        -1.11855         0.52280
H           3.57990         5.54158        -2.59520
H           5.54018         9.68089        -2.72621
H           7.10393         9.86486        -4.50107



