%chk=27_C20H13N3SSi.chk
%NProcShared=12
%Mem=8000MB
#B3LYP/6-31++G(d,p) opt scf=direct freq test

Geom opt of No.27 candidate from the CEPDB database with SMILE code of C1C=Cc2c1c1cnc3C=C(Cc3c1c1=C[SiH2]C=c21)c1nccc2nsnc12, HPC, 20131227, Shuo Dai, Gaussian09

0  1
C           2.75673        -0.73741         0.49569
C           2.34203         0.35288        -0.41003
C           3.20903        -0.07263        -1.35480
C           2.60521        -1.22347        -1.92675
C           2.32242        -1.96763        -0.88639
C           1.53576        -3.16595        -1.71729
C           1.01589        -4.01698        -0.95118
N           1.56218        -4.98391        -0.37348
C           0.85231        -5.90682        -0.90647
C           0.69595        -6.62822         0.32684
C           0.08743        -7.75835         0.24825
C          -0.40861        -7.35518        -1.40791
C           0.31471        -5.73340        -2.40382
C           0.93366        -4.03331        -2.83347
C           1.30047        -2.50744        -4.01308
C           1.21949        -1.75179        -5.26117
Si          2.14886         0.23698        -5.45098
H           3.50533         0.44346        -6.07719
H           1.35859         1.52302        -5.33032
C           2.59724        -0.09521        -3.79515
C           2.19553        -1.28358        -3.26775
C           0.12807        -8.49431         1.75124
N           1.33378        -8.42616         2.60465
C           1.47200        -8.99243         3.91608
C           0.52228        -9.67660         4.65816
C          -0.69324        -9.74442         3.96030
N          -1.78271       -10.34445         4.47004
S          -2.97565       -10.17311         3.33811
N          -2.20045        -9.33402         2.13074
C          -0.92710        -9.14686         2.50311
H           2.30449        -0.34893         1.44775
H           3.75416        -0.06436         0.63984
H           1.24108         0.27270        -0.41063
H           4.24469        -0.45618        -1.13451
H          -0.03338        -4.11411        -1.22446
H           1.10538        -6.23026         1.24008
H          -1.51759        -7.50415        -1.26344
H          -0.08613        -8.35503        -1.82632
H           0.89505        -1.62380        -6.29686
H           3.14679         0.74139        -3.31625
H           2.45951        -8.89376         4.40095
H           0.67659       -10.11149         5.64779



