%chk=9_C20H12N4S2SeSi.chk
%NProcShared=12
%Mem=8000MB
#B3LYP/6-31++G(d,p) opt scf=direct freq test

Geom opt of No.9 candidate from the CEPDB database with SMILE code of c1[nH]cc2c1c1ccncc1c1ccc3cc([nH]c3c21)-c1nccc2nsnc12, HPC, 20131227, Shuo Dai, Gaussian09

0  1
C          -1.02843         2.67141        -0.01955
N           0.10115         3.45560        -0.01883
H           0.09097         4.47032         0.00762
C           1.24151         2.66323        -0.04620
C           0.85930         1.32892        -0.10784
C          -0.60132         1.37185        -0.04838
C          -1.45520         0.22915        -0.01615
C          -2.87566         0.24180        -0.00035
C          -3.52985        -0.98170         0.00258
N          -2.89159        -2.15635         0.00600
C          -1.52934        -2.12329         0.00937
C          -0.70431        -0.96576        -0.00755
C           0.78090        -1.02567        -0.00730
C           1.43384        -2.25963         0.05725
C           2.79369        -2.39966         0.30887
C           3.52197        -1.25074         0.63219
C           4.86886        -0.98160         0.89641
C           5.29059        -1.23910        -0.40730
N           4.37923         0.06835        -0.77977
H           4.78725         0.98842        -0.68229
C           3.08877        -0.09477         0.00867
C           1.65433         0.15303        -0.10911
C           6.76460        -1.69290        -0.47596
N           7.65177        -0.68123        -0.20253
C           8.99855        -0.90406         0.00028
C           9.72397        -2.08828        -0.00858
C           8.90422        -3.21395        -0.12689
N           9.37876        -4.47199        -0.10415
S           8.05021        -5.45097        -0.19541
N           6.80288        -4.32142        -0.28014
C           7.35137        -3.07886        -0.31379
H          -2.01547         3.13630         0.01171
H           2.20403         3.13492        -0.01055
H          -3.45099         1.15443        -0.00473
H          -4.61355        -1.04277        -0.00133
H          -1.10838        -3.11733         0.01282
H           0.90696        -3.20449        -0.05949
H           3.30157        -3.35172         0.22330
H           5.39407        -0.08113         1.26267
H           9.54347         0.02179         0.16410
H          10.80314        -2.13434         0.07621



