%chk=18_C22H15N3S3Si2.chk
%NProcShared=12
%Mem=8000MB
#B3LYP/6-31++G(d,p) opt scf=direct freq test

Geom opt of No.18 candidate from the CEPDB database with SMILE code of [SiH2]1c(ccc1-c1ncc(-c2cccs2)c2nsnc12)-c1cccc2ccccc12, HPC, 20131227, Shuo Dai, Gaussian09

0  1
Si         -1.12328        -0.97140        -0.76270
H          -1.11035        -1.06689        -2.23984
H          -1.98641        -2.07336        -0.25211
C          -1.28159         0.61252         0.24384
C           0.01119         1.38328        -0.17681
C           1.24811         0.51018         0.07075
C           0.85301        -0.97051        -0.00441
C           1.54993        -1.85644        -0.94175
N           2.22385        -1.28665        -1.97124
C           2.66088        -2.04603        -2.99855
C           2.48137        -3.42564        -3.15005
C           2.97125        -4.15285        -4.30229
C           3.60750        -3.66957        -5.43178
C           3.85994        -4.70254        -6.37922
C           3.43265        -5.92836        -5.93607
S           2.82321        -5.85851        -4.37347
C           1.75217        -4.04804        -2.09553
N           1.34887        -5.32765        -1.97541
S           0.49703        -5.49004        -0.58239
N           0.60319        -3.94163        -0.03559
C           1.30181        -3.24732        -0.95306
C          -1.37547         0.50722         1.78380
C          -1.50280         1.75537         2.41582
C          -1.63257         1.84711         3.79415
C          -1.69886         0.68855         4.56041
C          -1.65795        -0.58226         3.98299
C          -1.87779        -1.74206         4.75796
C          -2.07213        -2.99557         4.18431
C          -1.71068        -3.16565         2.87608
C          -1.28035        -2.04953         2.18956
C          -1.43078        -0.70159         2.59234
H          -2.17954         1.11752        -0.12878
H           0.12987         2.34005         0.33696
H          -0.03241         1.61808        -1.25039
H           1.65265         0.70818         1.07229
H           2.05036         0.77277        -0.62591
H           0.92476        -1.39319         1.00194
H           3.17522        -1.44640        -3.74765
H           3.85901        -2.62676        -5.59713
H           4.31927        -4.55252        -7.34357
H           3.45638        -6.88890        -6.41967
H          -1.50250         2.67292         1.82997
H          -1.71533         2.82424         4.25702
H          -1.83896         0.78726         5.63646
H          -1.93321        -1.66912         5.84236
H          -2.43259        -3.84564         4.74553
H          -1.70223        -4.12869         2.37689
H          -0.77877        -2.34119         1.28797



