%chk=96_C21H13N3OS3Si2.chk
%NProcShared=12
%Mem=8000MB
#B3LYP/6-31++G(d,p) opt scf=direct freq test

Geom opt of No.96 candidate from the CEPDB database with SMILE code of [SiH2]1C=c2c3C=C[SiH2]c3c3cc4oc(cc4cc3c2=C1)-c1nccc2nsnc12, HPC, 20131227, Shuo Dai, Gaussian09

0  1
Si          6.34745         0.04715        -3.20714
H           5.77413        -1.24517        -2.78074
H           5.69335         0.48034        -4.52042
C           8.39106        -0.14508        -2.41596
C           8.73825         1.12096        -2.09347
C           9.94283         1.90343        -1.49765
C          11.00071         2.08105        -2.51079
C          11.98347         2.76143        -1.73208
Si         11.56979         4.56369        -2.10455
H          10.62110         4.86135        -3.25321
H          12.96426         5.01366        -2.14102
C           9.93385         3.56535        -0.81085
C           8.88229         4.45647        -1.31458
C           8.60565         5.97309        -0.54651
C           7.79034         6.45772        -1.67498
O           7.14105         7.74411        -1.77481
C           6.07227         7.34003        -2.65877
C           5.65387         6.13514        -1.69893
C           6.70729         5.31157        -2.15610
C           6.60968         3.82772        -1.82032
C           7.91033         3.47364        -2.44298
C           8.04679         1.99010        -2.99577
C           7.65668         1.32770        -4.15781
C           6.81039         7.20403        -4.32504
N           6.62312         5.90004        -5.00502
C           7.57458         5.38555        -5.97715
C           9.03411         5.25581        -5.51623
C           9.42990         6.68506        -5.16313
N          10.75231         6.98635        -4.53906
S          10.69614         8.42292        -3.66429
N           9.07811         8.76351        -3.99975
C           8.36863         7.51866        -4.39622
H           9.02733        -0.80045        -3.07141
H          10.35230         1.16842        -0.80548
H          10.74264         2.48157        -3.47866
H          11.91819         2.60576        -0.64484
H          10.47102         3.93099         0.08042
H           9.36768         5.04848        -2.05606
H           9.45843         6.73845        -0.53839
H           8.25372         6.12943         0.48182
H           8.71717         6.71128        -2.16506
H           5.22503         8.01439        -2.70047
H           4.66516         5.68167        -1.71176
H           5.94226         6.17573        -0.61799
H           6.45844         5.19390        -3.19196
H           5.77131         3.33882        -2.34276
H           6.48895         3.60837        -0.75721
H           7.90741         3.92087        -3.44221
H           7.91478         0.33385        -4.65970
H           6.29327         7.96620        -4.90842
H           5.67196         5.55812        -5.08374
H           7.56315         6.09141        -6.80833
H           7.24118         4.41672        -6.36160
H           9.66157         4.96492        -6.37054
H           9.20324         4.42839        -4.81004
H           9.52417         7.13246        -6.13502
H          11.36750         7.18615        -5.32755
H           8.64253         9.17639        -3.17781
H           8.48479         6.92436        -3.60909



