%chk=34_C23H11N5S3Si.chk
%NProcShared=12
%Mem=8000MB
#B3LYP/6-31++G(d,p) opt scf=direct freq test

Geom opt of No.34 candidate from the CEPDB database with SMILE code of c1cc2c(sc(-c3nccc4nsnc34)c2s1)-c1ncc(s1)-c1ccccc1, HPC, 20131227, Shuo Dai, Gaussian09

0  1
C           2.15760         0.61910        -0.00140
C           1.01377         1.42630         0.00097
C          -0.21849         0.68047        -0.00149
C          -1.56351         0.93719         0.00411
S          -2.39841        -0.54262        -0.01353
C          -0.98254        -1.47947        -0.00385
C          -0.99991        -2.91462        -0.00104
N           0.20253        -3.55767        -0.02153
C           0.29831        -4.90932        -0.02058
C          -0.76350        -5.80194        -0.00090
C          -2.02851        -5.18997         0.01865
N          -3.20879        -5.83706         0.03692
S          -4.39184        -4.67692         0.05383
N          -3.46242        -3.31673         0.04256
C          -2.17921        -3.70377         0.02015
C           0.12742        -0.67582        -0.00314
S           1.89587        -1.09344        -0.00072
C          -2.34825         2.12181         0.02754
N          -3.67420         2.13112        -0.01010
C          -4.13067         3.43186         0.00727
C          -3.12741         4.36900         0.03657
S          -1.59990         3.63066         0.13676
C          -3.13015         5.80245        -0.00263
C          -3.70832         6.53500         1.02861
C          -3.67208         7.92104         0.96253
C          -2.97688         8.55393        -0.07289
C          -2.30722         7.81286        -1.04244
C          -2.42906         6.43666        -1.03722
H           3.19230         0.93227        -0.00181
H           1.11492         2.50395         0.00390
H           1.32571        -5.26605        -0.03796
H          -0.62665        -6.87014        -0.00154
H          -5.19831         3.63334        -0.03362
H          -4.15252         6.03336         1.88589
H          -4.17002         8.50644         1.72834
H          -2.94721         9.63711        -0.11963
H          -1.69363         8.29103        -1.79867
H          -1.94334         5.84798        -1.81466



