%chk=41_C18H11N5S3Si.chk
%NProcShared=12
%Mem=8000MB
#B3LYP/6-31++G(d,p) opt scf=direct freq test

Geom opt of No.41 candidate from the CEPDB database with SMILE code of C1C=c2ccc3c4nsnc4c4c(oc5cc(-c6nccc7nsnc67)c6nsnc6c45)c3c2=C1, HPC, 20131227, Shuo Dai, Gaussian09

0  1
C           3.16388        -0.41682        -1.18943
C           2.50438        -1.08934         0.05687
C           3.10986        -0.40845         1.01994
C           4.62040        -0.31359         1.38475
C           5.22910         0.54434         0.33529
C           4.84210         1.81027         0.90018
C           5.36852         2.89489        -0.20373
N           6.59451         2.82104        -1.03562
S           7.50748         4.19683        -0.94302
N           7.09651         4.25724         0.71125
C           5.64383         4.06353         0.74916
C           4.47647         3.73253         2.00506
C           2.93940         2.58116         2.44839
O           1.56545         3.24368         2.58827
C           1.92214         4.53492         3.47153
C           0.65207         5.42488         3.06107
C           1.59664         6.49740         3.31518
C           2.00705         6.38771         4.82984
N           2.42507         5.19280         5.53559
C           2.71714         5.04554         6.81355
C           2.82566         6.17311         7.56109
C           2.66166         7.41662         6.88034
N           2.75654         8.64814         7.38659
S           2.47017         9.73379         6.14746
N           2.22041         8.70618         4.90801
C           2.28746         7.51257         5.48626
C           2.80055         5.93918         2.33648
N           2.78446         6.53508         0.86214
S           2.50443         5.12209         1.19941
N           3.66291         5.62428         3.22658
C           4.00924         6.75635         2.54598
C           3.92781         5.17752         2.87424
C           2.98127         1.76481         1.26029
C           2.51753         0.85313         0.26044
C           2.11918         0.55547        -1.03216
H           3.87374        -1.17144        -1.49254
H           3.70774         0.52385        -1.64030
H           1.29901        -0.84006         0.16943
H           5.14520        -1.25636         1.40216
H           4.86430         0.15699         2.38373
H           4.77069         0.88420        -0.55156
H           6.18627         0.27247        -0.08733
H           5.57310         1.91855         1.74084
H           4.57415         3.14557        -0.90514
H           6.64794         2.19390        -1.83723
H           7.44038         5.01932         1.28683
H           5.42179         5.03744         0.21561
H           4.04385         3.92372         0.97036
H           2.66827         2.04346         3.42555
H           1.58544         4.03020         4.38996
H          -0.26598         5.67656         3.57205
H           0.29526         5.06259         2.07630
H           1.41214         7.44765         2.85848
H           2.80920         4.01841         7.18043
H           3.02694         6.10387         8.60636
H           2.96416         4.27439         2.59044
H           3.49749         6.10216         0.24215
H           4.98396         5.53323         3.78777
H           3.69047         7.68367         3.02622
H           4.78228         5.59130         1.82191
H           2.12090         1.08269         1.94337
H           1.78615         0.51549        -2.07157



