%chk=23_C20H10N4S5Si.chk
%NProcShared=12
%Mem=8000MB
#B3LYP/6-31++G(d,p) opt scf=direct freq test

Geom opt of No.23 candidate from the CEPDB database with SMILE code of [SiH2]1C=c2ccc3c4nsnc4c4c5sc(cc5c5nsnc5c4c3c2=C1)-c1ccc[Se]1, HPC, 20131227, Shuo Dai, Gaussian09

0  1
Si          1.00604         0.01270        -0.09901
H           0.53270         1.24788        -0.61543
H           0.53270        -1.05212        -0.91049
C           2.83804         0.01270        -0.09901
C           3.49506         0.15750        -1.22775
C           4.83798         0.15750        -1.22775
C           5.50944         0.30549        -2.38130
C           6.95344         0.30549        -2.38130
C           7.64000         1.49782        -2.21988
N           6.98155         2.60863        -2.08103
S           5.37788         2.59755        -2.09671
N           9.65874         2.62973        -2.04220
C           9.01875         1.51153        -2.20585
C           9.72163         0.31987        -2.36811
C          11.19450         0.29035        -2.36468
S          12.12046         1.21795        -2.23266
C          13.32647         0.66185        -2.30505
C          13.20151        -0.62956        -2.48472
C          11.82728        -0.90691        -2.52802
C          11.10386        -2.07122        -2.69280
N          11.49752        -3.38803        -2.87268
S          10.37125        -4.13471        -2.97962
N           9.32911        -3.36154        -2.87758
C           9.73775        -2.07319        -2.69809
C           9.02471        -0.88664        -2.53658
C           7.63790        -0.88319        -2.54222
C           2.82360         0.30549        -2.38130
C           0.39538        -0.20708         1.61418
C          14.61256         1.39056        -2.19886
C          14.50326         2.86748        -1.74669
C          15.90796         3.14400        -1.14766
C          16.27820         1.83043        -0.42750
Se         15.45431         0.71584        -1.09610
H           3.35404        -0.10102         0.78747
H           5.35398         0.04378        -0.34127
H           4.99344         0.41921        -3.26777
H          13.96884        -1.31346        -2.57695
H          -0.04527        -0.32582         2.53979
H          15.02675         1.36447        -3.18509
H          13.73800         2.98977        -1.00890
H          14.23975         3.53640        -2.53916
H          15.87144         3.95899        -0.45529
H          16.62455         3.41837        -1.89339
H          16.03358         1.89756         0.61199
H          17.32712         1.63223        -0.50098



