%chk=76_C25H15N5SSi2.chk
%NProcShared=12
%Mem=8000MB
#B3LYP/6-31++G(d,p) opt scf=direct freq test

Geom opt of No.76 candidate from the CEPDB database with SMILE code of [SiH2]1ccc2c1csc2-c1sc(-c2sc(c3[SiH2]ccc23)-c2ncncn2)c2nccnc12, HPC, 20131227, Shuo Dai, Gaussian09

0  1
Si         -1.64115         1.69007         0.00458
H          -1.70888         2.40585        -1.28530
H          -1.70387         2.38617         1.30532
C          -2.40751        -0.00448         0.00008
C          -1.46100        -0.94037        -0.00234
C          -0.11345        -0.44520        -0.00081
C           0.02960         0.96268         0.00006
C           1.28884         1.46369         0.00030
S           2.38092         0.18120         0.00459
C           1.09684        -1.04637         0.00135
C           1.42848        -2.43483         0.00031
S           3.07393        -2.74635        -0.01197
C           2.88338        -4.38756        -0.01242
C           4.08192        -5.12057        -0.02395
S           3.90504        -6.79866        -0.02037
C           5.56688        -7.05840        -0.03958
C           6.22017        -5.86590        -0.04541
Si          7.97742        -5.35974        -0.05896
H           8.54305        -5.83480        -1.34178
H           8.55356        -5.82447         1.22273
C           7.46546        -3.56088        -0.05658
C           6.12015        -3.45478        -0.04401
C           5.40524        -4.71934        -0.03730
C           5.99049        -8.42342        -0.04383
N           7.29576        -8.62187        -0.05085
C           7.60296        -9.90340        -0.05304
N           6.74759       -10.92896        -0.04803
C           5.46624       -10.58363        -0.04096
N           5.02716        -9.34870        -0.03916
C           1.55870        -4.76171        -0.00144
N           1.08933        -6.04639         0.00178
C          -0.25885        -6.10931         0.01009
C          -1.08516        -4.99741         0.01466
N          -0.64691        -3.72118         0.01427
C           0.70762        -3.60813         0.00519
H          -3.47120        -0.19153         0.00193
H          -1.74225        -1.98116        -0.00422
H           1.65334         2.47793         0.00096
H           8.18729        -2.75878        -0.06175
H           5.66540        -2.46967        -0.03866
H           8.65958       -10.12491        -0.05987
H           4.71008       -11.35789        -0.03618
H          -0.67862        -7.10983         0.01311
H          -2.16471        -5.10772         0.01847



