%chk=87_C20H6N4OS4Se.chk
%NProcShared=12
%Mem=8000MB
#B3LYP/6-31++G(d,p) opt scf=direct freq test

Geom opt of No.87 candidate from the CEPDB database with SMILE code of [SiH2]1cc2c(ccc(-c3cccnc3)c2c1)-c1ccc([Se]1)-c1nccc2nsnc12, HPC, 20131227, Shuo Dai, Gaussian09

0  1
Si         -2.57700        -0.70400         0.00100
H          -3.43535        -1.04992        -1.07602
H          -3.33723        -1.00957         1.16077
C          -2.01600         1.04300        -0.00000
C          -0.26300         0.73100        -0.00100
C           0.74700         1.53100        -0.00200
C           2.05600         1.02900         0.00400
C           2.24300        -0.36300        -0.00200
C           1.19100        -1.18200        -0.00100
C           1.39983        -2.61082        -0.00093
C           2.39261        -3.11938        -0.73276
C           2.61530        -4.52432        -0.70570
C           1.62993        -5.36785        -0.16714
N           0.66028        -4.86695         0.54027
C           0.60263        -3.48678         0.77535
C          -0.13700        -0.66500        -0.00000
C          -1.24600        -1.42200         0.00100
C           0.52284         2.99593        -0.00957
C           0.43648         3.64283        -1.15982
C           0.46009         5.08839        -0.81628
C           0.55252         5.14576         0.50175
Se          0.59599         3.89405         0.98604
C          -0.62695         5.85314         1.05382
N          -1.69969         5.18075         1.52458
C          -2.77189         5.82986         2.05003
C          -2.81218         7.17810         2.13830
C          -1.73616         7.93535         1.67114
N          -1.45899         9.24746         1.60297
S          -0.26973         9.39274         1.05506
N           0.25043         8.21163         0.75528
C          -0.61271         7.26244         1.11403
H          -2.33410         1.57256         0.87366
H          -2.38676         1.65763        -0.79351
H           2.86547         1.66908         0.01265
H           3.19833        -0.75331        -0.00720
H           2.98870        -2.50437        -1.30849
H           3.49264        -4.91987        -1.07830
H           1.67529        -6.38546        -0.33279
H          -0.01715        -3.11085         1.50990
H          -1.21347        -2.03828         0.87509
H          -1.21889        -1.94943        -0.92958
H           0.36695         3.22871        -2.10253
H           0.41386         5.88420        -1.47169
H          -3.57577         5.27939         2.39031
H          -3.63508         7.64592         2.54939



