%chk=86_C20H12N4S3.chk
%NProcShared=12
%Mem=8000MB
#B3LYP/6-31++G(d,p) opt scf=direct freq test

Geom opt of No.86 candidate from the CEPDB database with SMILE code of c1cc2c(scc2o1)-c1cc2c3nsnc3c3c4sccc4[Se]c3c2c2nsnc12, HPC, 20131227, Shuo Dai, Gaussian09

0  1
C          -2.08100         0.04600        -0.00100
C          -1.33100        -1.08600        -0.00100
C          -0.00400        -0.69400         0.00500
C           1.33600        -1.10600        -0.00100
S           2.10000        -0.04700        -0.00100
C           1.29500         1.10000        -0.00000
C          -0.01300         0.69600        -0.00000
O          -1.29900         1.08900        -0.00000
C           1.79539        -2.47497        -0.00630
C           3.14990        -2.74228        -0.04043
C           3.59347        -4.05621        -0.05106
C           4.95518        -4.35126        -0.08435
N           6.05803        -3.55003        -0.11259
S           7.12858        -4.28994        -0.13933
N           6.77193        -5.59766        -0.12872
C           5.38714        -5.64726        -0.09369
C           4.50274        -6.70719        -0.07186
C           4.67382        -8.09932        -0.07456
S           6.10795        -8.91043        -0.10841
C           7.35046        -7.82831        -0.13958
C           3.21606        -9.94972        -0.03789
C           3.47782        -8.63258        -0.04508
Se          2.56277        -7.66762        -0.02338
C           3.15626        -6.49169        -0.03891
C           2.66059        -5.10447        -0.02600
C           1.29721        -4.82070         0.00734
N           0.42958        -5.78699         0.02316
S          -1.13912        -5.45560         0.06154
N          -0.39645        -3.24041         0.06680
C           0.87356        -3.50861         0.02347
H          -3.11256         0.07603        -0.00169
H          -1.68410        -2.05571        -0.00476
H           1.62906         2.07644         0.00063
H           3.83013        -1.96639        -0.05797
H           8.20475        -7.24972        -0.16078
H           2.59455       -10.77344        -0.02228



