%chk=1_C22H12N4S2Si.chk
%NProcShared=12
%Mem=8000MB
#B3LYP/6-31++G(d,p) opt scf=direct freq test

Geom opt of No.1 candidate from the CEPDB database with SMILE code of [SiH2]1c(ccc1-c1nccc2nsnc12)-c1ccc(nc1)-c1scc2ccsc12, HPC, 20131227, Shuo Dai, Gaussian09

0  1
Si         -1.05134        -1.15537        -0.51747
H          -1.21112        -1.24326        -1.98393
H          -1.68675        -2.28469         0.21673
C          -1.27996         0.56546         0.25342
C           0.01130         1.30945        -0.20052
C           1.25027         0.43686         0.08082
C           0.88467        -1.06764         0.02822
C           1.57425        -1.93326        -0.96265
N           2.23505        -1.35005        -2.00890
C           2.67832        -2.09131        -3.06225
C           2.51704        -3.46147        -3.24729
C           1.81594        -4.10082        -2.20783
N           1.46806        -5.39697        -2.16142
S           0.59593        -5.60870        -0.76244
N           0.66543        -4.07852        -0.13529
C           1.34930        -3.33523        -1.02471
C          -1.42394         0.53494         1.75694
C          -1.63435        -0.62845         2.51736
C          -1.81569        -0.57730         3.87914
C          -1.89219         0.66723         4.45138
N          -1.62440         1.79773         3.76149
C          -1.37836         1.72335         2.45413
C          -2.35791         0.87211         5.80095
S          -2.83921        -0.39619         6.86295
C          -3.23014         0.68805         8.13625
C          -3.01582         1.95740         7.69259
C          -3.14539         3.25543         8.25303
C          -2.79551         4.27256         7.35699
S          -2.28816         3.78225         5.77580
C          -2.54751         2.09202         6.39164
H          -2.17191         1.02797        -0.18203
H           0.13536         2.28955         0.27219
H          -0.04240         1.50748        -1.27997
H           1.64360         0.67107         1.07950
H           2.05316         0.70503        -0.61481
H           0.96964        -1.49246         1.03744
H           3.19004        -1.49448        -3.81577
H           2.87938        -3.98314        -4.11721
H          -1.68471        -1.62734         2.10274
H          -1.95013        -1.49439         4.43704
H          -1.15598         2.67608         1.98358
H          -3.57996         0.30174         9.07621
H          -3.47039         3.47888         9.25785
H          -2.80020         5.33818         7.52315



