%chk=21_C23H12N4S4.chk
%NProcShared=12
%Mem=8000MB
#B3LYP/6-31++G(d,p) opt scf=direct freq test

Geom opt of No.21 candidate from the CEPDB database with SMILE code of [SiH2]1C=c2ccc3sc4c(ncc5cc(ccc45)-c4cncc5nsnc45)c3c2=C1, HPC, 20131227, Shuo Dai, Gaussian09

0  1
Si          1.21644         1.43324         0.07997
H           0.64147         1.45941        -1.15405
H           0.64083         1.32116         1.30889
C           2.41808        -0.04956        -0.00300
C           1.68053        -1.21262        -0.06817
C           0.40365        -1.43575        -0.08088
C          -0.03270        -2.64474        -0.14820
C           0.96399        -3.55827        -0.19928
S           0.35098        -5.13723        -0.28747
C           1.80433        -5.84884        -0.32741
C           2.82106        -4.75183        -0.26615
N           4.07972        -5.36677        -0.30063
C           4.28317        -6.72189        -0.37638
C           3.28258        -7.68562        -0.43004
C           3.52142        -9.04332        -0.50523
C           2.49768        -9.97144        -0.55924
C           1.19043        -9.52443        -0.53199
C           0.90568        -8.19042        -0.45803
C           1.96989        -7.26608        -0.40665
C           2.78085       -11.35963        -0.63999
C           1.79196       -12.31596        -0.62793
N           1.98730       -13.64042        -0.69188
C           3.25295       -14.12666        -0.78619
C           4.32581       -13.25199        -0.81132
N           5.61960       -13.53881        -0.89895
S           6.44144       -12.15457        -0.88670
N           5.21333       -11.15466        -0.77627
C           4.08065       -11.84950        -0.73711
C           2.45668        -2.87895        -0.16136
C           2.92601        -0.88317        -0.04851
C           2.88089         0.96885         0.05259
H           4.03516         0.08895         0.00516
H          -0.06432        -0.55154        -0.03119
H          -1.05646        -2.76922        -0.15502
H           5.34135        -7.01581        -0.39294
H           4.53562        -9.37923        -0.52107
H           0.37971       -10.22405        -0.56993
H          -0.12179        -7.87372        -0.44099
H           0.76963       -11.97783        -0.56157
H           3.39659       -15.17748        -0.84062
H           2.81799         2.58658         0.14617



