%chk=7_C26H14N4S2Si.chk
%NProcShared=12
%Mem=8000MB
#B3LYP/6-31++G(d,p) opt scf=direct freq test

Geom opt of No.7 candidate from the CEPDB database with SMILE code of c1scc2c1ccc1c3ccccc3c3c4[Se]c(cc4sc3c21)-c1cncc2nsnc12, HPC, 20131227, Shuo Dai, Gaussian09

0  1
C          -3.00000        -0.27900         0.00000
S          -3.05700         1.12000         0.00100
C          -1.84700         1.60500         0.00000
C          -0.93400         0.53300         0.00000
C          -1.68500        -0.65600         0.00000
C          -1.07800        -1.84300         0.00000
C           0.22300        -1.99000        -0.00100
C           1.08000        -0.88000        -0.00100
C           2.48700        -0.98200        -0.00100
C           3.08488        -2.18447        -0.00600
C           4.42521        -2.26794        -0.00594
C           5.02309        -3.47041        -0.01093
C           4.54433         0.01577         0.01601
C           3.20600         0.12600         0.00400
C           2.69400         1.30000        -0.00200
C           3.52176         2.35744        -0.00969
Se          5.42481         2.08818        -0.01147
C           6.33056         3.82630        -0.02330
C           5.93146         4.61404         1.21387
C           3.01985         3.60303        -0.01612
S           0.80184         3.06105         0.00022
C           1.39100         1.52200        -0.00100
C           0.51800         0.42200        -0.00100
C           7.79794         3.61868        -0.02467
C           8.30593         2.36604        -0.02733
N           9.64591         2.13927        -0.01753
C          10.53521         3.15593        -0.01687
C          10.06543         4.48607        -0.01911
N          10.64034         5.68780        -0.01864
S           9.69082         6.61185        -0.02138
N           8.49956         6.04925        -0.02530
C           8.66103         4.71620        -0.02314
H          -3.81136        -0.91674        -0.00063
H          -1.59963         2.60691        -0.00068
H          -1.66522        -2.69164         0.00083
H           0.62526        -2.94037        -0.00180
H           2.51434        -3.04441        -0.00988
H           4.99575        -1.40800        -0.00205
H           5.32702        -4.45662        -0.01688
H           5.25392         0.76498         0.02969
H           6.04652         4.37055        -0.89966
H           6.12355         5.66657         1.20068
H           6.29430         4.48003         2.21152
H           7.65981         1.56139        -0.03705
H          11.54871         2.96145        -0.01475



