%chk=99_C23H13N3S3Si2.chk
%NProcShared=12
%Mem=8000MB
#B3LYP/6-31++G(d,p) opt scf=direct freq test

Geom opt of No.99 candidate from the CEPDB database with SMILE code of [SiH2]1cc2cccc(-c3ccc(-c4ncc(-c5[SiH2]ccc5)c5nsnc45)c4nsnc34)c2c1, HPC, 20131227, Shuo Dai, Gaussian09

0  1
Si         -2.96893        -0.23352         0.02864
H          -3.64862        -0.76523        -1.19752
H          -3.58787        -0.75164         1.28834
C          -1.87363         1.34191         0.02297
C          -0.39568         0.93698         0.00325
C           0.69943         1.77635         0.00087
C           1.99128         1.22951        -0.00028
C           2.20057        -0.15712        -0.00584
C           1.12782        -1.05774        -0.01419
C           1.35435        -2.53525        -0.01907
C           2.65960        -3.11338        -0.01272
C           2.90899        -4.49853        -0.01539
C           1.89063        -5.46411         0.00849
C           2.10214        -6.87547        -0.01833
N           3.42659        -7.24853        -0.01656
C           3.78934        -8.54347         0.01442
C           2.90407        -9.60028         0.05218
C           3.24337       -11.01953         0.04301
Si          3.53619       -12.33760         1.30516
H           4.89065       -12.25952         1.86919
H           2.34148       -12.38834         2.20724
C           3.31024       -13.58643        -0.10610
C           3.33420       -13.01397        -1.32656
C           3.50538       -11.52084        -1.37784
C           1.52838        -9.26610        -0.04113
N           0.51731       -10.16103        -0.11446
S          -0.89006        -9.34540        -0.05646
N          -0.23762        -7.87026        -0.09677
C           1.10383        -7.89911        -0.05597
C           0.58330        -4.95007         0.05291
N          -0.52393        -5.64643         0.19715
S          -1.84340        -4.76405         0.03119
N          -1.00310        -3.42586        -0.11724
C           0.33099        -3.53720        -0.01770
C          -0.14814        -0.43908        -0.00286
C          -1.41910        -1.18215        -0.00142
H          -2.11792         1.86218         0.94783
H          -2.14445         1.89335        -0.87605
H           0.57024         2.85027         0.00336
H           2.86167         1.88000         0.00454
H           3.23443        -0.49471        -0.00237
H           3.55039        -2.49013        -0.01927
H           3.95387        -4.82568        -0.03178
H           4.86480        -8.69951         0.00268
H           2.23115       -11.32028         0.29805
H           3.10902       -14.62217         0.10653
H           3.21694       -13.56498        -2.25074
H           2.80242       -11.06969        -2.09386
H           4.51581       -11.26025        -1.70788
H          -1.43788        -1.72064         0.95190
H          -1.45688        -1.66826        -0.98230



