%chk=39_C26H12N4OS2.chk
%NProcShared=12
%Mem=8000MB
#B3LYP/6-31++G(d,p) opt scf=direct freq test

Geom opt of No.39 candidate from the CEPDB database with SMILE code of c1c[nH]c(c1)-c1cc2c3nsnc3c3c4[Se]ccc4c4nsnc4c3c2c2nsnc12, HPC, 20131227, Shuo Dai, Gaussian09

0  1
C          -1.14400         0.00000        -0.00200
C          -0.32800         1.08200         0.00100
N           0.90100         0.64300         0.00100
H           1.71843         1.21902         0.00302
C           0.90100        -0.64300        -0.00200
C          -0.32800        -1.08200         0.00300
C           2.08135        -1.47478        -0.00973
C           1.94730        -2.83222        -0.00833
C           3.09034        -3.64407        -0.01822
C           2.98264        -5.05385        -0.01805
N           1.80463        -5.60065        -0.01049
S           0.49254        -4.67845        -0.00150
N           3.92844        -7.13389        -0.02311
C           4.07628        -5.84359        -0.02555
C           5.38035        -5.29649        -0.03603
C           6.51015        -6.12838        -0.04583
Se          6.29901        -8.03875        -0.04647
C           4.39057        -8.48513        -0.03215
C           8.94768        -6.46414        -0.06955
C           7.75937        -5.57868        -0.05489
C           7.93206        -4.19853        -0.05056
N           9.13142        -3.70027        -0.04886
S          10.40482        -4.67524        -0.05174
N           7.01347        -2.06815        -0.05531
C           6.84342        -3.35570        -0.04807
C           5.55520        -3.89450        -0.03771
C           4.36672        -3.03627        -0.02746
C           4.47072        -1.64356        -0.02862
N           5.63905        -1.07642        -0.03894
S           5.75393         0.52324        -0.04023
N           3.43571         0.41411        -0.01802
C           3.33778        -0.88094        -0.01883
H          -2.17599        -0.00000        -0.00706
H          -0.62388         2.07067         0.00293
H          -0.62387        -2.07066         0.00955
H           1.00817        -3.26000        -0.00004
H           3.41216        -8.81327        -0.02447
H           9.97322        -6.57894        -0.07994



