%chk=73_C24H14N4S2Si2.chk
%NProcShared=12
%Mem=8000MB
#B3LYP/6-31++G(d,p) opt scf=direct freq test

Geom opt of No.73 candidate from the CEPDB database with SMILE code of C1C=c2c3c4ncccc4[Se]c3c3ncc(cc3c2=C1)-c1nccc2nsnc12, HPC, 20131227, Shuo Dai, Gaussian09

0  1
C           1.44261        -0.92188        -0.56438
C           2.32596         0.09300         0.05694
C           1.80383         1.12144         0.68655
C           0.41011         1.10366         0.78957
C          -0.53793         0.23599         0.27931
N          -0.46558        -0.90966        -0.50378
C          -1.61811        -1.57354        -0.85893
C          -2.86157        -1.10345        -0.43738
C          -2.95264         0.03349         0.34134
C          -1.78781         0.71779         0.70933
Se         -1.56024         1.82536         1.44181
C          -0.26534         2.06451         1.49711
C           0.50571         3.12993         2.15613
N          -0.11604         4.13743         2.89087
C           0.65054         5.11441         3.48906
C           2.03341         5.10132         3.36841
C           2.66824         4.11441         2.64534
C           1.91152         3.11689         2.03120
C           2.54083         2.04194         1.25008
C           2.27008        -1.97046        -1.20632
C           2.81558         6.13321         4.00760
N           2.35026         7.39957         4.07279
C           3.06796         8.39190         4.66207
C           4.27589         8.15802         5.22187
C           4.81627         6.87097         5.19081
N           5.95373         6.30944         5.63124
S           5.93264         5.02949         5.31990
N           4.81176         4.72551         4.68219
C           4.07288         5.82829         4.56989
H           0.82501        -0.45356        -1.30204
H           0.82501        -1.36587         0.18818
H           3.35115        -0.00797        -0.00488
H          -1.56160        -2.42414        -1.44057
H          -3.71948        -1.60857        -0.70917
H          -3.87523         0.37723         0.65069
H           0.19200         5.86283         4.03186
H           3.69662         4.11366         2.55902
H           2.54281        -2.81933        -1.72600
H           2.68088         9.34833         4.68267
H           4.79668         8.92778         5.67050



