%chk=5_C17H6N6OS2Se.chk
%NProcShared=12
%Mem=8000MB
#B3LYP/6-31++G(d,p) opt scf=direct freq test

Geom opt of No.5 candidate from the CEPDB database with SMILE code of c1cc2csc(-c3cnc(-c4ccc(-c5ccccc5)c5nsnc45)c4nsnc34)c2s1, HPC, 20131227, Shuo Dai, Gaussian09

0  1
C          -2.31168        -0.31240         0.00280
C          -1.66246         0.92335         0.00146
C          -0.24436         0.81406         0.00095
C           0.77116         1.69047         0.00114
S           2.23425         0.82340        -0.00943
C           1.44943        -0.71146        -0.00406
C           2.16653        -1.96712        -0.00405
C           1.55004        -3.21633        -0.01922
N           2.13722        -4.42069        -0.01246
C           3.47430        -4.54765         0.00809
C           3.99438        -5.87896         0.01603
C           5.36939        -6.11431         0.02344
C           5.93677        -7.36449         0.05043
C           5.19949        -8.55644         0.05346
C           5.89608        -9.83644         0.04133
C           7.28143        -9.89896        -0.21414
C           7.92516       -11.10899        -0.40708
C           7.21552       -12.28794        -0.24601
C           5.88208       -12.25493         0.13790
C           5.22731       -11.04100         0.25492
C           3.77026        -8.40329         0.01607
N           2.83230        -9.36856        -0.03376
S           1.35059        -8.65707        -0.01631
N           1.80685        -7.08159         0.00863
C           3.15424        -7.03416         0.01288
C           4.25800        -3.36705         0.01884
N           5.59940        -3.25254         0.03515
S           5.98646        -1.66435         0.03709
N           4.47374        -1.03834         0.02427
C           3.58310        -2.04761         0.01254
C           0.08987        -0.54545         0.00194
S          -1.30488        -1.71272         0.01187
H          -3.37223        -0.51059         0.00129
H          -2.21290         1.85139        -0.00066
H           0.81503         2.77216         0.00480
H           0.48211        -3.36586        -0.04070
H           6.09853        -5.31529         0.01180
H           7.02195        -7.34087         0.06275
H           7.90317        -9.01266        -0.30092
H           8.97220       -11.11177        -0.69012
H           7.70432       -13.23836        -0.41135
H           5.32453       -13.16362         0.33125
H           4.17385       -11.07438         0.50690



