%chk=47_C19H11N3OS2SeSi.chk
%NProcShared=12
%Mem=8000MB
#B3LYP/6-31++G(d,p) opt scf=direct freq test

Geom opt of No.47 candidate from the CEPDB database with SMILE code of [SiH2]1c(ccc1-c1ccc(-c2cncc3nsnc23)c2nsnc12)-c1ccc[Se]1, HPC, 20131227, Shuo Dai, Gaussian09

0  1
Si         -0.78300        -1.00900        -0.20000
H          -1.09868        -1.26022        -1.56148
H          -1.46936        -1.99657         0.55500
C          -1.19800         0.41300         0.25100
C           0.00900         1.27800        -0.20000
C           1.23800         0.38600         0.07400
C           0.73400        -1.06800         0.07400
C           1.41549        -1.84533        -0.98791
C           2.13099        -1.26753        -1.97719
C           2.62093        -1.99197        -3.01747
C           2.42678        -3.32669        -3.10680
C           2.97250        -4.06552        -4.22100
C           2.72812        -5.39432        -4.26265
N           3.07977        -6.15139        -5.33514
C           3.68006        -5.60946        -6.41700
C           3.95660        -4.22629        -6.43451
N           4.51832        -3.38922        -7.30541
S           4.51629        -2.17111        -6.78420
N           3.96430        -2.18204        -5.58803
C           3.59123        -3.44065        -5.30552
C           1.69652        -3.98821        -2.11756
N           1.32356        -5.26065        -1.90570
S           0.63160        -5.30957        -0.78568
N           0.53296        -4.10260        -0.24814
C           1.17527        -3.23479        -1.02853
C          -1.38628         0.47737         1.75792
C          -0.42428        -0.50611         2.46859
C          -0.31027         0.09994         3.89273
C          -0.29672         1.62470         3.65583
Se         -0.98087         1.86424         2.29837
H          -2.13045         0.73527        -0.16322
H           0.06180         2.18212         0.36981
H          -0.06072         1.57563        -1.22541
H           1.66584         0.62854         1.02428
H           1.99454         0.53240        -0.66837
H           0.93884        -1.54726         1.00848
H           2.30988        -0.25175        -1.94226
H           3.15480        -1.51080        -3.75807
H           2.26266        -5.84543        -3.45960
H           3.93398        -6.20168        -7.22312
H          -2.41543         0.25118         1.94387
H           0.52876        -0.53275         1.98289
H          -0.77111        -1.51833         2.46375
H           0.59351        -0.21804         4.36914
H          -1.10950        -0.20788         4.53411
H           0.71027         1.98556         3.63063
H          -0.80633         2.14207         4.44166



