%chk=54_C22H10N6O2S2.chk
%NProcShared=12
%Mem=8000MB
#B3LYP/6-31++G(d,p) opt scf=direct freq test

Geom opt of No.54 candidate from the CEPDB database with SMILE code of c1occ2c1ccc1c3ccccc3c3c4oc(cc4ccc3c21)-c1cncc2nsnc12, HPC, 20131227, Shuo Dai, Gaussian09

0  1
C           2.42256         0.62432        -1.63146
O           2.24051        -0.90621        -0.90747
C           3.36929        -1.14796        -1.61141
C           3.88151        -0.01531        -0.85633
C           3.94360         0.51402        -2.07395
C           5.55694         0.21592        -2.28019
C           6.56145        -0.03434        -1.20852
C           6.16213        -0.00988         0.14401
C           6.96268         0.06987         1.39552
C           8.39370         0.08582         1.51844
C           9.05017         0.16950         2.77027
C           8.32080         0.25326         3.92964
C           6.95226         0.25098         3.83778
C           6.24217         0.15566         2.61277
C           4.80987         0.15830         2.63829
C           4.00105         0.23245         3.78139
O           4.50365         0.28411         5.01894
C           3.51943         0.37217         5.91091
C           2.30458         0.34516         5.26993
C           2.62403         0.25028         3.89842
C           1.85931         0.20431         2.76325
C           2.61036         0.19659         1.61857
C           4.03599         0.08841         1.47228
C           4.75741        -0.06699         0.28202
C           4.12934         0.44359         7.19426
C           4.73033        -0.66243         7.80450
N           5.48285        -0.67271         8.95142
C           5.77260         0.49508         9.59458
C           5.38471         1.70400         8.98418
N           5.64670         2.94331         9.42722
S           5.03141         3.98393         8.28949
N           4.38089         2.90900         7.20681
C           4.57140         1.67835         7.72008
H           1.43242         0.65050        -1.08133
H           2.91776        -1.11257        -2.70630
H           5.92973        -0.01534        -3.29405
H           7.62791        -0.13442        -1.45337
H           9.03119         0.02358         0.64099
H          10.13179         0.17082         2.85202
H           8.75963         0.32300         4.92227
H           6.46056         0.33149         4.78988
H           1.28364         0.39004         5.61640
H           0.77734         0.20531         2.70697
H           1.93554         0.28052         0.78643
H           4.66013        -1.64309         7.32786
H           6.30158         0.44131        10.53561



