%chk=62_C21H11N3OS2Si.chk
%NProcShared=12
%Mem=8000MB
#B3LYP/6-31++G(d,p) opt scf=direct freq test

Geom opt of No.62 candidate from the CEPDB database with SMILE code of c1ccc2c(c1)ccc1cc3cc4ncc(cc4cc3cc21)-c1nccc2nsnc12, HPC, 20131227, Shuo Dai, Gaussian09

0  1
C           1.25030         0.54718        -0.20027
C           1.99412        -0.08501        -1.13159
C           2.94975         0.82858        -1.45932
C           4.07214         0.71108        -0.61933
C           3.86197         1.53116         0.28264
C           2.21283         0.96752         0.76105
C           5.43872         2.09381        -0.11384
C           6.63915         1.26931        -0.23708
C           6.30993        -0.00551         0.05856
C           7.15678        -1.00572         0.42033
C           6.47689        -2.17923         0.41299
C           7.27858        -3.17397         0.31342
C           6.56815        -4.27713         0.21975
N           7.36874        -5.15128         0.14642
C           8.40695        -5.76527         0.10110
C           7.92618        -7.02245         0.01227
C           6.16425        -6.60971         0.04354
C           5.44893        -4.98477         0.18329
C           4.51041        -3.78271         0.29829
C           5.08784        -2.44482         0.44469
C           4.42569        -1.32110         0.68788
C           4.92909        -0.25981        -0.00901
C           9.75477        -7.17020        -0.00651
N          10.78622        -5.95084        -0.01386
C          12.21272        -5.88131        -0.00358
C          13.08239        -6.93230         0.00195
C          12.35205        -8.12998         0.00287
N          13.00982        -9.29700         0.00233
S          11.85582       -10.47138         0.00595
N          10.41763        -9.62417         0.01185
C          10.68941        -8.31298         0.00295
H           0.44059         1.20821        -0.50699
H           2.46280        -1.02569        -0.73765
H           2.55695         1.91395        -1.41952
H           1.98663        -0.16322         1.18971
H           5.60411         2.96339        -0.77043
H           7.65716         1.53100        -0.54943
H           8.22841        -0.96483         0.60721
H           8.34801        -3.18525         0.27247
H           9.18978        -5.06385         0.15796
H           5.20379        -7.18888         0.01902
H           3.40915        -3.79597         0.27669
H           3.48411        -1.29779         1.17867
H          12.69100        -4.88647        -0.00510
H          14.17922        -6.86919         0.00067



