%chk=71_C18H8N4OS3Se.chk
%NProcShared=12
%Mem=8000MB
#B3LYP/6-31++G(d,p) opt scf=direct freq test

Geom opt of No.71 candidate from the CEPDB database with SMILE code of c1cc(oc1-c1scc2nccnc12)-c1cnc(-c2cccc3nsnc23)c2nsnc12, HPC, 20131227, Shuo Dai, Gaussian09

0  1
C          -1.36598        -0.00748        -0.00245
C          -0.57635         1.13484        -0.00158
C           0.72800         0.71946        -0.00041
O           0.78944        -0.63755         0.00277
C          -0.50913        -1.08927         0.00459
C          -0.87153        -2.46830         0.01414
S           0.33998        -3.68453        -0.01270
C          -0.81997        -4.94120         0.01463
C          -2.09901        -4.44889         0.04545
N          -3.20203        -5.24466         0.07390
C          -4.33981        -4.49524         0.10091
C          -4.38858        -3.09846         0.09885
N          -3.30065        -2.28855         0.07111
C          -2.13757        -3.01176         0.04424
C           1.96520         1.44792         0.00178
C           3.25090         0.93274         0.00922
N           4.40021         1.67244         0.01755
C           4.39278         3.04987         0.01843
C           5.64496         3.78896         0.02714
C           5.71461         5.21137         0.02980
C           6.88680         5.97707         0.03293
C           8.14657         5.38966         0.03833
C           8.18576         3.97518         0.03815
N           9.30622         3.23849         0.04289
S           8.82811         1.65212         0.03870
N           7.18819         1.83008         0.03124
C           6.91876         3.14883         0.03187
C           3.12035         3.68198         0.00777
N           2.83573         5.00003         0.00399
S           1.21238         5.19337        -0.00814
N           0.78200         3.61788        -0.01059
C           1.89488         2.86205        -0.00081
H          -2.44258        -0.02374        -0.00450
H          -0.94467         2.14993        -0.00122
H          -0.50047        -5.97008         0.00736
H          -5.26116        -5.06880         0.12584
H          -5.34576        -2.58311         0.12046
H           3.42963        -0.14511         0.00927
H           4.81262         5.81534         0.02925
H           6.77951         7.06109         0.03094
H           9.04608         5.98714         0.04252



