%chk=24_C22H10N4S3SeSi.chk
%NProcShared=12
%Mem=8000MB
#B3LYP/6-31++G(d,p) opt scf=direct freq test

Geom opt of No.24 candidate from the CEPDB database with SMILE code of [SiH2]1C=c2c3c4ncc(cc4sc3c3c4ccccc4ccc3c2=C1)-c1nccc2nsnc12, HPC, 20131227, Shuo Dai, Gaussian09

0  1
Si          1.48287        -0.21668         1.71560
H           0.76244         1.09972         1.59484
H           0.76614        -1.46614         1.26745
C           2.58664        -0.01194         0.05269
C           1.69295         0.06916        -0.94040
C           0.42954         0.16991        -1.29861
C          -0.58700         0.04319        -0.41820
N          -0.66973        -0.11244         0.86665
C          -1.67359        -0.22647         1.62005
C          -2.82490        -0.17248         0.98452
C          -2.88001         0.00377        -0.36404
C          -1.73739         0.09817        -1.01993
S          -1.56228         0.28550        -2.55383
C           0.07972         0.30828        -2.56276
C           1.06370         0.43064        -3.56328
C           0.38577         0.59516        -4.95076
C          -0.96722         0.59486        -5.04064
C          -1.50663         0.73544        -6.22011
C          -2.05766         0.85501        -7.33187
C          -0.13988         0.87272        -7.33272
C           0.99042         0.74693        -6.17051
C           2.42820         0.73410        -5.94067
C           3.10291         0.55352        -4.41303
C           2.52727         0.37096        -2.94193
C           2.97123         0.13957        -1.06129
C           3.00610        -0.07937         0.79730
C          -3.99560        -0.26008         1.70831
N          -4.47389        -1.48445         2.02175
C          -5.63122        -1.57188         2.70634
C          -6.39037        -0.50517         3.14210
C          -5.89769         0.75889         2.82228
N          -6.46661         1.92504         3.13815
S          -5.49016         3.11114         2.53163
N          -4.31588         2.17733         1.85135
C          -4.66066         0.90193         2.08127
H           4.21929         0.00683        -0.03977
H          -1.50550        -0.34925         2.67496
H          -3.76486         0.06763        -0.92918
H          -1.82388         0.51634        -4.46101
H          -1.61968         0.88836        -7.43563
H          -3.26693         0.77150        -6.67725
H           0.62012         0.98778        -8.22895
H           3.07722         0.85382        -6.85845
H           4.15958         0.59161        -4.64763
H           2.88344        -0.29629         2.22615
H          -5.98673        -2.57231         2.92849
H          -7.29479        -0.63708         3.68736



