%chk=93_C19H10N4S3Se.chk
%NProcShared=12
%Mem=8000MB
#B3LYP/6-31++G(d,p) opt scf=direct freq test

Geom opt of No.93 candidate from the CEPDB database with SMILE code of c1cc2c3c[nH]cc3c3c4oc(cc4ncc3c2[Se]1)-c1cncc2nsnc12, HPC, 20131227, Shuo Dai, Gaussian09

0  1
C           1.00646        -0.02334        -0.09702
C           2.38966        -0.02334        -0.09702
C           2.88366        -0.35014        -1.45551
C           2.83708        -1.57531        -1.82601
C           2.39556        -2.49121        -0.94873
N           2.02873        -2.12570         0.24231
H           1.69995        -2.80772         0.89556
C           3.13876        -3.28262        -3.35982
C           3.20219        -1.98255        -3.02931
C           3.65768        -1.03049        -3.95571
C           4.08754        -1.35051        -5.30976
O           4.18750        -2.53468        -6.06507
C           4.64368        -2.23495        -7.24888
C           4.86210        -0.85431        -7.33004
C           4.52048        -0.29342        -6.13002
N           4.53434         0.95908        -5.67343
C           4.15715         1.29247        -4.46480
C           3.70490         0.32827        -3.55247
C           3.28833         0.63280        -2.23954
Se          0.35314         0.40887         1.69963
C           4.88632        -3.18095        -8.31252
C           4.65048        -4.49052        -8.07465
N           4.72768        -5.42056        -9.06263
C           5.03226        -5.07873       -10.33340
C           5.28390        -3.72604       -10.64462
N           5.60168        -3.05803       -11.75253
S           5.72047        -1.77284       -11.45314
N           5.48690        -1.57410       -10.17189
C           5.20738        -2.75833        -9.60395
H           0.41063        -0.22042        -0.91627
H           2.98549         0.17374         0.72223
H           2.34774        -3.48550        -1.22099
H           3.27856        -4.03536        -4.05182
H           5.21970        -0.34661        -8.15428
H           4.19332         2.28322        -4.17821
H           4.40558        -4.79178        -7.11846
H           5.08042        -5.80030       -11.06963



