%chk=2_C20H12N4S3Si.chk
%NProcShared=12
%Mem=8000MB
#B3LYP/6-31++G(d,p) opt scf=direct freq test

Geom opt of No.2 candidate from the CEPDB database with SMILE code of [SiH2]1C=c2c3cc(-c4nccc5nsnc45)c4cocc4c3c3cnc4ccoc4c3c2=C1, HPC, 20131227, Shuo Dai, Gaussian09

0  1
Si          2.65284        -0.17618        -1.67956
H           2.98112         1.00288        -0.47595
H           3.93832        -0.72237        -1.32507
C           1.16717        -1.87115        -1.27618
C           1.38270        -2.42001        -0.01754
C           0.36371        -3.06729         0.90960
C          -0.66405        -3.22231         0.24653
C          -1.18377        -1.98880         0.44847
C          -0.91960        -0.63627         1.04991
N           0.12638        -0.30672         1.92103
C           0.89846         0.81986         1.66439
C           0.54823         1.83930         0.72812
C          -0.65146         1.59731        -0.03594
N          -1.05075         2.24078        -1.15797
S          -2.40989         1.47711        -1.73190
N          -2.31583         0.14979        -0.80912
C          -1.39067         0.34617         0.14763
C          -2.16033        -2.59131         0.95973
C          -3.26764        -2.21444         0.23327
O          -4.16689        -2.51440         1.10189
C          -3.41487        -3.19168         2.13325
C          -1.82221        -3.56181         2.30013
C           0.16383        -3.55737         2.10267
C           1.95754        -3.92709         2.03640
C           2.93612        -5.06397         2.14212
N           4.43416        -5.31185         1.97318
C           5.20585        -4.26376         1.55460
C           6.68002        -4.14656         1.43238
C           6.90291        -2.87173         0.95637
O           5.68121        -2.22901         0.74498
C           4.58246        -3.05034         1.18729
C           3.00798        -2.77246         1.34665
C           2.43649        -1.58089         0.46564
C           1.71109        -0.58756        -0.17279
H           0.09716        -1.59661        -1.30864
H          -1.10662        -4.27626         0.38145
H           2.00521         0.57592         1.76361
H           1.33231         2.38068         0.19508
H          -3.47294        -1.66197        -0.69876
H          -4.33585        -3.42293         2.67863
H           2.64904        -6.09332         2.39595
H           7.50756        -4.83787         1.67098
H           7.83846        -2.32859         0.74377
H           1.17627         0.28456        -0.70709



