%chk=60_C18H8N6S3Se.chk
%NProcShared=12
%Mem=8000MB
#B3LYP/6-31++G(d,p) opt scf=direct freq test

Geom opt of No.60 candidate from the CEPDB database with SMILE code of C1ccc2c1c(sc2-c1ncc(-c2nccs2)c2nsnc12)-c1[SiH2]ccc1, HPC, 20131227, Shuo Dai, Gaussian09

0  1
C          -1.39190         1.41909         0.02236
C          -2.25316         0.17169        -0.00819
C          -1.47439        -0.93883        -0.02422
C          -0.10519        -0.58091         0.01919
C          -0.01787         0.84112         0.08388
C           1.27111         1.26961         0.19233
S           2.34974        -0.09431         0.16708
C           1.11115        -1.22660         0.02809
C           1.54946        -2.58859        -0.01357
N           2.90152        -2.87346        -0.03195
C           3.34425        -4.15777        -0.02699
C           2.52845        -5.28616        -0.01127
C           3.02625        -6.63921        -0.00737
N           4.30326        -6.96359        -0.02358
C           4.41884        -8.34035        -0.02315
C           3.24118        -9.04487        -0.00512
S           1.94570        -7.98315         0.01972
C           1.13493        -5.01490         0.00087
N           0.11849        -5.89183         0.00904
S          -1.29925        -5.08988         0.03345
N          -0.69185        -3.58805         0.04197
C           0.64948        -3.64227         0.00611
C           2.07885         2.51084         0.18144
Si          2.56303         2.83815        -1.68290
H           3.98514         2.45079        -1.81811
H           1.60344         2.18276        -2.61855
C           2.20066         4.62618        -1.50204
C           1.91513         4.97197        -0.23567
C           1.89038         3.88231         0.81995
H          -1.60214         1.99832         0.92056
H          -1.55419         1.99401        -0.89149
H          -3.32523         0.12337        -0.00360
H          -1.93321        -1.90493        -0.03228
H           4.43525        -4.24414        -0.03596
H           5.40014        -8.78682        -0.03782
H           3.04071       -10.09988        -0.00290
H           2.90111         2.18158         0.82691
H           2.24033         5.27066        -2.36457
H           1.77600         6.00617         0.05549
H           1.06789         3.96429         1.52933
H           2.81705         4.05692         1.40042



